100
22 40
13 56
5 49
3 31
16 83
21 58
26 67
5 52
12 28
12 87
5 77
12 85
25 70
27 12
18 27
19 49
7 60
21 63
16 33
28 15
15 14
23 69
11 22
0 18
17 46
23 35
12 22
24 77
1 59
29 1
0 99
21 58
13 60
5 72
29 71
15 13
22 65
27 70
28 55
11 89
24 97
21 76
15 49
28 15
6 46
5 47
8 19
29 8
1 83
5 24
7 72
7 92
13 71
16 76
16 3
11 80
8 42
23 72
10 14
10 52
11 56
15 58
18 61
25 6
10 99
4 0
12 19
22 61
0 7
21 21
21 56
10 12
26 61
15 46
18 76
23 88
18 1
25 60
7 16
18 60
12 49
11 92
25 56
4 63
4 95
3 75
19 85
17 6
2 75
22 74
4 2
25 37
7 12
21 70
10 16
8 49
23 94
1 39
22 50
6 67
